20 380
0 1 31.9
0 2 27.8
0 3 3.9
0 4 27.4
0 5 61.2
0 6 65.3
0 7 25.4
0 8 33.7
0 9 46.3
0 10 52.1
0 11 53.0
0 12 38.5
0 13 32.8
0 14 42.7
0 15 37.3
0 16 22.4
0 17 43.3
0 18 31.8
0 19 25.7
1 2 13.7
1 3 33.3
1 4 34.1
1 5 69.9
1 6 75.5
1 7 50.4
1 8 28.7
1 9 64.0
1 10 69.2
1 11 68.6
1 12 47.6
1 13 19.5
1 14 51.9
1 15 40.2
1 16 17.2
1 17 69.6
1 18 63.1
1 19 6.6
2 3 27.5
2 4 40.7
2 5 77.9
2 6 83.1
2 7 51.1
2 8 38.6
2 9 68.5
2 10 74.1
2 11 74.0
2 12 54.6
2 13 7.2
2 14 59.0
2 15 48.7
2 16 5.9
2 17 70.0
2 18 55.7
2 19 13.7
3 4 31.3
3 5 64.9
3 6 68.9
3 7 28.0
3 8 37.4
3 9 49.6
3 10 55.4
3 11 56.3
3 12 42.3
3 13 31.8
3 14 46.5
3 15 41.2
3 16 21.8
3 17 45.2
3 18 29.8
3 19 27.3
4 5 37.3
4 6 42.4
4 7 23.6
4 8 11.4
4 9 30.2
4 10 35.2
4 11 34.4
4 12 13.9
4 13 47.8
4 14 18.4
4 15 9.9
4 16 38.5
4 17 40.3
4 18 52.9
4 19 28.8
5 6 6.0
5 7 41.6
5 8 41.5
5 9 21.3
5 10 18.7
5 11 15.4
5 12 23.6
5 13 85.0
5 14 19.1
5 15 29.8
5 16 75.7
5 17 41.8
5 18 75.7
5 19 65.4
6 7 44.3
6 8 47.2
6 9 22.5
6 10 18.5
6 11 15.5
6 12 28.6
6 13 90.2
6 14 24.1
6 15 35.4
6 16 80.7
6 17 41.9
6 18 77.7
6 19 70.9
7 8 34.9
7 9 22.7
7 10 28.3
7 11 29.9
7 12 24.3
7 13 57.1
7 14 26.7
7 15 29.6
7 16 46.5
7 17 19.2
7 18 34.6
7 19 43.9
8 9 39.4
8 10 43.8
8 11 42.4
8 12 20.9
8 13 45.7
8 14 24.5
8 15 12.0
8 16 38.1
8 17 51.5
8 18 62.4
8 19 25.1
9 10 5.8
9 11 7.3
9 12 19.0
9 13 75.2
9 14 16.9
9 15 28.4
9 16 65.0
9 17 20.8
9 18 55.3
9 19 58.2
10 11 3.4
10 12 23.0
10 13 80.9
10 14 20.0
10 15 32.3
10 16 70.7
10 17 23.4
10 18 60.1
10 19 63.6
11 12 21.5
11 13 80.9
11 14 18.1
11 15 30.6
11 16 70.8
11 17 26.6
11 18 62.5
11 19 63.1
12 13 61.7
12 14 4.5
12 15 9.4
12 16 52.2
12 17 34.9
12 18 58.3
12 19 42.6
13 14 66.1
13 15 55.8
13 16 10.6
13 17 75.8
13 18 58.2
13 19 20.7
14 15 12.6
14 16 56.7
14 17 34.9
14 18 61.1
14 19 47.0
15 16 47.1
15 17 43.2
15 18 61.6
15 19 35.8
16 17 65.2
16 18 49.8
16 19 14.8
17 18 39.6
17 19 63.1
18 19 57.2
